p cnf 8 20
-3 -6 -1 -7 1 2 3 4 5 6 7 8 0
-2 2 0
 6338606474312471848 2 7 0
-6338606474312471848 1 2 3 5 6 7 8 6338606474312471848 0
-3 -1 1 3 0
 1 2 3 4 5 6 7 8 6338606474312471848 0
-4 4 0
-8 -4 -6 8 4 6 0
-2 -8 -5 -3 -4 -6338606474312471848 -7 2 3 4 5 7 8 6338606474312471848 0
 6 0
-1 -4 -8 -7 -5 -2 -6 1 2 3 4 5 6 7 8 6338606474312471848 0
-6 -8 1 3 6 7 8 6338606474312471848 0
-5 -6 -1 1 4 5 6 7 8 6338606474312471848 0
 1 3 0
-1 -2 -8 -4 8 1 2 4 0
-6338606474312471848 -2 -4 -7 2 3 4 5 6 7 6338606474312471848 0
-3 -6338606474312471848 -6 6338606474312471848 3 5 6 0
-4 -8 -7 -3 -2 -6 -6338606474312471848 2 3 4 5 6 7 8 6338606474312471848 0
